NAME : amz0619.70981_70981.tour
COMMENT : Cost = 70981_70981
COMMENT : Found by LKH-AMZ [Keld Helsgaun] Sun May 11 14:35:45 2025
COMMENT : TW viol.: 0 #: 0
TYPE : TOUR
DIMENSION : 119
TOUR_SECTION
101
106
14
43
31
5
15
17
10
83
23
76
94
33
18
66
48
52
28
91
24
77
115
55
100
113
42
119
116
65
72
98
3
22
7
9
102
110
49
60
53
105
88
2
82
37
11
19
32
111
36
41
39
112
85
79
54
67
104
109
16
12
71
1
93
74
4
90
108
56
75
29
6
45
62
73
44
81
50
89
20
68
34
47
35
96
80
118
59
69
117
78
114
87
38
99
103
95
86
57
13
8
21
107
61
27
51
46
64
26
92
70
97
58
40
30
63
84
25
-1
EOF
